; SWAP1 DUP2 SWAP1 DUP2 DUP1 => DUP1 SWAP2 DUP3 DUP4
(set-option :produce-proofs true)
; 
(set-info :status unknown)
(declare-fun storage_t ((_ BitVec 256) (_ BitVec 256) Int (_ BitVec 256)) (_ BitVec 256))
(declare-fun storage_s ((_ BitVec 256) (_ BitVec 256) Int (_ BitVec 256)) (_ BitVec 256))
(declare-fun exc_halt_t (Int) Bool)
(declare-fun exc_halt_s (Int) Bool)
(declare-fun stack_t ((_ BitVec 256) (_ BitVec 256) Int (_ BitVec 6)) (_ BitVec 256))
(declare-fun stack_s ((_ BitVec 256) (_ BitVec 256) Int (_ BitVec 6)) (_ BitVec 256))
(declare-fun sc_t (Int) (_ BitVec 6))
(declare-fun sc_s (Int) (_ BitVec 6))
(declare-fun used_gas_t ((_ BitVec 256) (_ BitVec 256) Int) Int)
(declare-fun used_gas_s ((_ BitVec 256) (_ BitVec 256) Int) Int)
(assert
 (exists ((x_0 (_ BitVec 256)) (x_1 (_ BitVec 256)) )(let (($x8915 (forall ((w (_ BitVec 256)) )(let ((?x3797 (storage_t x_0 x_1 4 w)))
 (let ((?x4677 (storage_s x_0 x_1 5 w)))
 (= ?x4677 ?x3797))))
 ))
 (let (($x7854 (exc_halt_t 4)))
 (let (($x1862 (exc_halt_s 5)))
 (let (($x1994 (= $x1862 $x7854)))
 (let (($x1041 (forall ((n (_ BitVec 6)) )(let ((?x4225 (stack_t x_0 x_1 4 n)))
 (let ((?x10578 (stack_s x_0 x_1 5 n)))
 (let (($x4592 (= ?x10578 ?x4225)))
 (let ((?x7495 (sc_t 4)))
 (let (($x3540 (bvsle ?x7495 n)))
 (or $x3540 $x4592)))))))
 ))
 (let ((?x7495 (sc_t 4)))
 (let ((?x4319 (sc_s 5)))
 (let (($x3074 (= ?x4319 ?x7495)))
 (let ((?x1828 (used_gas_t x_0 x_1 0)))
 (let ((?x4388 (used_gas_s x_0 x_1 0)))
 (let (($x1066 (= ?x4388 ?x1828)))
 (let (($x5574 (forall ((w (_ BitVec 256)) )(let ((?x1454 (storage_t x_0 x_1 0 w)))
 (let ((?x4052 (storage_s x_0 x_1 0 w)))
 (= ?x4052 ?x1454))))
 ))
 (let (($x56 (exc_halt_t 0)))
 (let (($x57 (exc_halt_s 0)))
 (let (($x58 (= $x57 $x56)))
 (let (($x2443 (forall ((n (_ BitVec 6)) )(let ((?x63 (sc_t 0)))
 (let (($x11416 (bvsle ?x63 n)))
 (let ((?x5483 (stack_t x_0 x_1 0 n)))
 (let ((?x8268 (stack_s x_0 x_1 0 n)))
 (let (($x2101 (= ?x8268 ?x5483)))
 (or $x2101 $x11416)))))))
 ))
 (let ((?x63 (sc_t 0)))
 (let ((?x72 (sc_s 0)))
 (let (($x73 (= ?x72 ?x63)))
 (let (($x9712 (exc_halt_t 3)))
 (let (($x1388 (not (= ((_ extract 6 6) (bvadd (_ bv1 7) (concat (_ bv0 1) (sc_t 3)))) (_ bv0 1)))))
 (let (($x6764 (forall ((w (_ BitVec 256)) )(let ((?x9177 (storage_t x_0 x_1 3 w)))
 (let ((?x3797 (storage_t x_0 x_1 4 w)))
 (= ?x3797 ?x9177))))
 ))
 (let (($x6677 (forall ((n (_ BitVec 6)) )(or (bvsle (bvadd (_ bv60 6) (sc_t 3)) n) (= (stack_t x_0 x_1 4 n) (stack_t x_0 x_1 3 n))))
 ))
 (let (($x4149 (= ?x7495 (bvadd (_ bv1 6) (sc_t 3)))))
 (let (($x4560 (= (used_gas_t x_0 x_1 4) (+ 3 (used_gas_t x_0 x_1 3)))))
 (let ((?x6754 (sc_t 3)))
 (let ((?x7779 (bvadd (_ bv63 6) ?x6754)))
 (let ((?x11197 (stack_t x_0 x_1 3 ?x7779)))
 (let (($x4882 (= (stack_t x_0 x_1 4 (bvadd (_ bv62 6) ?x6754)) (stack_t x_0 x_1 3 (bvadd (_ bv62 6) ?x6754)))))
 (let (($x1653 (= (stack_t x_0 x_1 4 (bvadd (_ bv61 6) ?x6754)) (stack_t x_0 x_1 3 (bvadd (_ bv61 6) ?x6754)))))
 (let ((?x11370 (bvadd (_ bv60 6) ?x6754)))
 (let ((?x3590 (stack_t x_0 x_1 3 ?x11370)))
 (let (($x11927 (not (= ((_ extract 6 6) (bvadd (_ bv1 7) (concat (_ bv0 1) (sc_t 2)))) (_ bv0 1)))))
 (let (($x9402 (not (bvsle (_ bv0 6) (bvadd (_ bv61 6) (sc_t 2))))))
 (let (($x5995 (exc_halt_t 2)))
 (let (($x6534 (= $x9712 (or $x5995 $x9402 $x11927))))
 (let (($x11203 (forall ((w (_ BitVec 256)) )(let ((?x5513 (storage_t x_0 x_1 2 w)))
 (let ((?x9177 (storage_t x_0 x_1 3 w)))
 (= ?x9177 ?x5513))))
 ))
 (let (($x7443 (forall ((n (_ BitVec 6)) )(let ((?x11248 (sc_t 2)))
 (let ((?x5370 (bvadd (_ bv61 6) ?x11248)))
 (let (($x4169 (bvsle ?x5370 n)))
 (let ((?x9680 (stack_t x_0 x_1 2 n)))
 (let ((?x5379 (stack_t x_0 x_1 3 n)))
 (let (($x1993 (= ?x5379 ?x9680)))
 (or $x1993 $x4169))))))))
 ))
 (let (($x9278 (= ?x6754 (bvadd (_ bv1 6) (sc_t 2)))))
 (let ((?x7063 (used_gas_t x_0 x_1 3)))
 (let (($x9643 (= ?x7063 (+ 3 (used_gas_t x_0 x_1 2)))))
 (let ((?x11248 (sc_t 2)))
 (let ((?x4957 (bvadd (_ bv63 6) ?x11248)))
 (let ((?x11666 (stack_t x_0 x_1 2 ?x4957)))
 (let (($x5097 (= (stack_t x_0 x_1 3 ?x4957) ?x11666)))
 (let ((?x7073 (bvadd (_ bv62 6) ?x11248)))
 (let ((?x337 (stack_t x_0 x_1 2 ?x7073)))
 (let ((?x5370 (bvadd (_ bv61 6) ?x11248)))
 (let ((?x483 (stack_t x_0 x_1 2 ?x5370)))
 (let (($x10603 (= $x5995 (or (exc_halt_t 1) (not (bvsle (_ bv0 6) (bvadd (_ bv61 6) (sc_t 1))))))))
 (let (($x4390 (forall ((w (_ BitVec 256)) )(let ((?x794 (storage_t x_0 x_1 1 w)))
 (let ((?x5513 (storage_t x_0 x_1 2 w)))
 (= ?x5513 ?x794))))
 ))
 (let (($x3561 (forall ((n (_ BitVec 6)) )(let ((?x11396 (stack_t x_0 x_1 1 n)))
 (let ((?x9680 (stack_t x_0 x_1 2 n)))
 (let (($x9057 (= ?x9680 ?x11396)))
 (or (bvsle (bvadd (_ bv61 6) (sc_t 1)) n) $x9057)))))
 ))
 (let ((?x9666 (sc_t 1)))
 (let (($x823 (= ?x11248 ?x9666)))
 (let ((?x2472 (used_gas_t x_0 x_1 2)))
 (let (($x790 (not (= ((_ extract 6 6) (bvadd (_ bv1 7) (concat (_ bv0 1) ?x63))) (_ bv0 1)))))
 (let (($x4852 (exc_halt_t 1)))
 (let (($x10637 (= $x4852 (or $x56 $x790 (not (bvsle (_ bv0 6) (bvadd (_ bv63 6) ?x63)))))))
 (let (($x2159 (forall ((w (_ BitVec 256)) )(let ((?x1454 (storage_t x_0 x_1 0 w)))
 (let ((?x794 (storage_t x_0 x_1 1 w)))
 (= ?x794 ?x1454))))
 ))
 (let (($x7021 (forall ((n (_ BitVec 6)) )(let ((?x5483 (stack_t x_0 x_1 0 n)))
 (let ((?x11396 (stack_t x_0 x_1 1 n)))
 (let (($x10298 (= ?x11396 ?x5483)))
 (let ((?x63 (sc_t 0)))
 (let ((?x1830 (bvadd (_ bv63 6) ?x63)))
 (let (($x4352 (bvsle ?x1830 n)))
 (or $x4352 $x10298))))))))
 ))
 (let (($x6587 (= ?x9666 (bvadd (_ bv1 6) ?x63))))
 (let ((?x4091 (used_gas_t x_0 x_1 1)))
 (let (($x4433 (= ?x4091 (+ 3 ?x1828))))
 (let ((?x1830 (bvadd (_ bv63 6) ?x63)))
 (let ((?x10177 (stack_t x_0 x_1 0 ?x1830)))
 (let (($x11729 (not (bvsle (_ bv0 6) (bvadd (_ bv63 6) (sc_s 4))))))
 (let (($x9175 (exc_halt_s 4)))
 (let (($x4865 (not (= ((_ extract 6 6) (bvadd (_ bv1 7) (concat (_ bv0 1) (sc_s 4)))) (_ bv0 1)))))
 (let (($x11369 (= $x1862 (or $x4865 $x9175 $x11729))))
 (let (($x5517 (forall ((w (_ BitVec 256)) )(let ((?x11096 (storage_s x_0 x_1 4 w)))
 (let ((?x4677 (storage_s x_0 x_1 5 w)))
 (= ?x4677 ?x11096))))
 ))
 (let (($x7506 (forall ((n (_ BitVec 6)) )(let ((?x9433 (sc_s 4)))
 (let ((?x1013 (bvadd (_ bv63 6) ?x9433)))
 (let (($x7310 (bvsle ?x1013 n)))
 (let ((?x3677 (stack_s x_0 x_1 4 n)))
 (let ((?x10578 (stack_s x_0 x_1 5 n)))
 (let (($x3167 (= ?x10578 ?x3677)))
 (or $x3167 $x7310))))))))
 ))
 (let (($x3192 (= ?x4319 (bvadd (_ bv1 6) (sc_s 4)))))
 (let ((?x11745 (used_gas_s x_0 x_1 5)))
 (let (($x10296 (= ?x11745 (+ 3 (used_gas_s x_0 x_1 4)))))
 (let ((?x9433 (sc_s 4)))
 (let ((?x1013 (bvadd (_ bv63 6) ?x9433)))
 (let ((?x4216 (stack_s x_0 x_1 4 ?x1013)))
 (let (($x8103 (exc_halt_s 3)))
 (let (($x6067 (not (bvsle (_ bv0 6) (bvadd (_ bv62 6) (sc_s 3))))))
 (let (($x1365 (not (= ((_ extract 6 6) (bvadd (_ bv1 7) (concat (_ bv0 1) (sc_s 3)))) (_ bv0 1)))))
 (let (($x1775 (forall ((w (_ BitVec 256)) )(let ((?x9398 (storage_s x_0 x_1 3 w)))
 (let ((?x11096 (storage_s x_0 x_1 4 w)))
 (= ?x11096 ?x9398))))
 ))
 (let (($x1079 (forall ((n (_ BitVec 6)) )(let ((?x3851 (sc_s 3)))
 (let ((?x4699 (bvadd (_ bv62 6) ?x3851)))
 (let (($x8206 (bvsle ?x4699 n)))
 (let ((?x11512 (stack_s x_0 x_1 3 n)))
 (let ((?x3677 (stack_s x_0 x_1 4 n)))
 (let (($x3176 (= ?x3677 ?x11512)))
 (or $x3176 $x8206))))))))
 ))
 (let (($x9219 (= ?x9433 (bvadd (_ bv1 6) (sc_s 3)))))
 (let ((?x3663 (used_gas_s x_0 x_1 4)))
 (let ((?x3851 (sc_s 3)))
 (let ((?x11414 (bvadd (_ bv63 6) ?x3851)))
 (let ((?x6480 (stack_s x_0 x_1 3 ?x11414)))
 (let ((?x4699 (bvadd (_ bv62 6) ?x3851)))
 (let ((?x8271 (stack_s x_0 x_1 3 ?x4699)))
 (let (($x5083 (= $x8103 (or (exc_halt_s 2) (not (bvsle (_ bv0 6) (bvadd (_ bv62 6) (sc_s 2))))))))
 (let (($x1154 (forall ((w (_ BitVec 256)) )(let ((?x8276 (storage_s x_0 x_1 2 w)))
 (let ((?x9398 (storage_s x_0 x_1 3 w)))
 (= ?x9398 ?x8276))))
 ))
 (let (($x3337 (forall ((n (_ BitVec 6)) )(let ((?x2272 (sc_s 2)))
 (let ((?x1467 (bvadd (_ bv62 6) ?x2272)))
 (let (($x2218 (bvsle ?x1467 n)))
 (or $x2218 (= (stack_s x_0 x_1 3 n) (stack_s x_0 x_1 2 n)))))))
 ))
 (let ((?x2272 (sc_s 2)))
 (let (($x3952 (= ?x3851 ?x2272)))
 (let ((?x530 (used_gas_s x_0 x_1 3)))
 (let (($x5917 (= ?x530 (+ 3 (used_gas_s x_0 x_1 2)))))
 (let ((?x7199 (bvadd (_ bv63 6) ?x2272)))
 (let ((?x8644 (stack_s x_0 x_1 2 ?x7199)))
 (let (($x10668 (= ?x8271 ?x8644)))
 (let (($x11302 (= ?x6480 (stack_s x_0 x_1 2 (bvadd (_ bv62 6) ?x2272)))))
 (let (($x8780 (exc_halt_s 1)))
 (let (($x7839 (not (bvsle (_ bv0 6) (bvadd (_ bv62 6) (sc_s 1))))))
 (let (($x5084 (not (= ((_ extract 6 6) (bvadd (_ bv1 7) (concat (_ bv0 1) (sc_s 1)))) (_ bv0 1)))))
 (let (($x10052 (exc_halt_s 2)))
 (let (($x4074 (forall ((w (_ BitVec 256)) )(let ((?x1449 (storage_s x_0 x_1 1 w)))
 (let ((?x8276 (storage_s x_0 x_1 2 w)))
 (= ?x8276 ?x1449))))
 ))
 (let (($x9569 (forall ((n (_ BitVec 6)) )(let ((?x10983 (stack_s x_0 x_1 1 n)))
 (let ((?x6543 (stack_s x_0 x_1 2 n)))
 (let (($x8937 (= ?x6543 ?x10983)))
 (let ((?x154 (sc_s 1)))
 (let ((?x5843 (bvadd (_ bv62 6) ?x154)))
 (let (($x8774 (bvsle ?x5843 n)))
 (or $x8774 $x8937))))))))
 ))
 (let (($x7089 (= ?x2272 (bvadd (_ bv1 6) (sc_s 1)))))
 (let ((?x9673 (used_gas_s x_0 x_1 2)))
 (let (($x3907 (= ?x9673 (+ 3 (used_gas_s x_0 x_1 1)))))
 (let ((?x154 (sc_s 1)))
 (let ((?x5493 (bvadd (_ bv63 6) ?x154)))
 (let ((?x11812 (stack_s x_0 x_1 1 ?x5493)))
 (let (($x8963 (= (stack_s x_0 x_1 2 ?x5493) ?x11812)))
 (let ((?x5843 (bvadd (_ bv62 6) ?x154)))
 (let ((?x6194 (stack_s x_0 x_1 1 ?x5843)))
 (let (($x2965 (forall ((w (_ BitVec 256)) )(let ((?x4052 (storage_s x_0 x_1 0 w)))
 (let ((?x1449 (storage_s x_0 x_1 1 w)))
 (= ?x1449 ?x4052))))
 ))
 (let (($x5554 (forall ((n (_ BitVec 6)) )(let ((?x8268 (stack_s x_0 x_1 0 n)))
 (let ((?x10983 (stack_s x_0 x_1 1 n)))
 (let (($x6671 (= ?x10983 ?x8268)))
 (or (bvsle (bvadd (_ bv62 6) (sc_s 0)) n) $x6671)))))
 ))
 (let (($x7530 (= ?x154 ?x72)))
 (let ((?x7417 (used_gas_s x_0 x_1 1)))
 (let (($x10172 (= ?x7417 (+ 3 ?x4388))))
 (let (($x3344 (forall ((w (_ BitVec 256)) )(let ((?x4052 (storage_s x_0 x_1 0 w)))
 (= ?x4052 (_ bv0 256))))
 ))
 (let (($x2310 (= ?x4388 0)))
 (let (($x5393 (not $x57)))
 (let (($x6781 (= (stack_s x_0 x_1 0 (_ bv1 6)) x_1)))
 (let (($x3119 (= (stack_s x_0 x_1 0 (_ bv0 6)) x_0)))
 (let (($x11128 (= ?x72 (_ bv2 6))))
 (and $x11128 $x3119 $x6781 $x5393 $x2310 $x3344 (= ?x11812 (stack_s x_0 x_1 0 (bvadd (_ bv62 6) ?x72))) (= ?x6194 (stack_s x_0 x_1 0 (bvadd (_ bv63 6) ?x72))) $x10172 $x7530 $x5554 $x2965 (= $x8780 (or $x57 (not (bvsle (_ bv0 6) (bvadd (_ bv62 6) ?x72))))) (= ?x8644 ?x6194) (= (stack_s x_0 x_1 2 ?x5843) ?x6194) $x8963 $x3907 $x7089 $x9569 $x4074 (= $x10052 (or $x5084 $x7839 $x8780)) $x11302 $x10668 $x5917 $x3952 $x3337 $x1154 $x5083 (= ?x4216 ?x8271) (= (stack_s x_0 x_1 4 ?x4699) ?x8271) (= (stack_s x_0 x_1 4 ?x11414) ?x6480) (= ?x3663 (+ 3 ?x530)) $x9219 $x1079 $x1775 (= $x9175 (or $x1365 $x6067 $x8103)) (= (stack_s x_0 x_1 5 (bvadd (_ bv63 6) ?x4319)) ?x4216) (= (stack_s x_0 x_1 5 ?x1013) ?x4216) $x10296 $x3192 $x7506 $x5517 $x11369 (= (stack_t x_0 x_1 1 (bvadd (_ bv63 6) ?x9666)) ?x10177) (= (stack_t x_0 x_1 1 ?x1830) ?x10177) $x4433 $x6587 $x7021 $x2159 $x10637 (= ?x11666 (stack_t x_0 x_1 1 (bvadd (_ bv61 6) ?x9666))) (= ?x483 (stack_t x_0 x_1 1 (bvadd (_ bv63 6) ?x9666))) (= ?x337 (stack_t x_0 x_1 1 (bvadd (_ bv62 6) ?x9666))) (= ?x2472 (+ 3 ?x4091)) $x823 $x3561 $x4390 $x10603 (= ?x11197 ?x483) (= (stack_t x_0 x_1 3 ?x5370) ?x483) (= (stack_t x_0 x_1 3 ?x7073) ?x337) $x5097 $x9643 $x9278 $x7443 $x11203 $x6534 (= (stack_t x_0 x_1 4 (bvadd (_ bv63 6) ?x7495)) ?x3590) (= (stack_t x_0 x_1 4 ?x11370) ?x3590) $x1653 $x4882 (= (stack_t x_0 x_1 4 ?x7779) ?x11197) $x4560 $x4149 $x6677 $x6764 (= $x7854 (or $x1388 $x9712 (not (bvsle (_ bv0 6) ?x11370)))) $x73 $x2443 $x58 $x5574 $x1066 (not (and $x3074 $x1041 $x1994 $x8915))))))))))))))))))))))))))))))))))))))))))))))))))))))))))))))))))))))))))))))))))))))))))))))))))))))))))))))))))))))))))))))))))
 )
(check-sat)
(get-proof)
